tsp_instances/TSP50/instance123.tsp
NODE_COORD_SECTION
0 115 98
1 112 46
2 160 137
3 116 101
4 44 59
5 111 114
6 161 193
7 72 117
8 117 152
9 14 76
10 190 174
11 87 128
12 15 62
13 141 95
14 54 66
15 62 85
16 126 129
17 180 156
18 24 12
19 148 108
20 71 180
21 69 198
22 133 143
23 84 104
24 140 9
25 38 180
26 164 57
27 65 194
28 85 40
29 145 17
30 47 132
31 1 47
32 116 176
33 0 34
34 53 88
35 93 96
36 46 6
37 57 50
38 174 45
39 22 137
40 37 197
41 96 162
42 154 39
43 97 175
44 82 129
45 87 99
46 180 77
47 79 83
48 152 48
49 78 55
