tsp_instances/TSP50/instance123.opt.tour
TOUR_SECTION
1
4
6
17
23
3
18
11
7
33
9
42
44
21
22
28
41
26
40
31
8
45
12
24
46
36
48
16
35
15
5
10
13
32
34
19
37
38
50
29
2
25
30
43
49
39
27
47
20
14
-1